/* 
	Test rk4 solver with temperature
*/

c := 10e-9
setcellsize(c, c, c)
setgridsize(256, 256, 1)

Msat  = 1e6 
Aex   = 0 
alpha = 0.1 
AnisU = vector(0, 0, 1)
m     = uniform(0, 0, 1)
fixdt = 2e-12
Temp  = 100              
Ku1   = 1e4/4
enabledemag = false
setsolver(4)
ThermSeed(567)

run(5e-9) 
//steps(18)
//OUTPUTFORMAT=OVF2_TEXT
//save(B_therm)
//save(m)
print(m.average())
expectv("m", m.average(), vector(-0.000, -0.000, 0.8366), 2e-3)
